NAME          
ROWS
 N  OBJ
 L  c1
 L  c2
 L  c3
 L  c4
COLUMNS
    MARKER    'MARKER'                 'INTORG'
    x[1]      c1        974
    x[1]      c2        18
    x[1]      c3        365
    x[1]      c4        409
    x[1]      OBJ       -205
    x[2]      c1        806
    x[2]      c2        504
    x[2]      c3        161
    x[2]      c4        256
    x[2]      OBJ       -944
    x[3]      c1        487
    x[3]      c2        326
    x[3]      c3        902
    x[3]      c4        282
    x[3]      OBJ       -35
    x[4]      c1        554
    x[4]      c2        737
    x[4]      c3        110
    x[4]      c4        679
    x[4]      OBJ       -503
    x[5]      c1        395
    x[5]      c2        839
    x[5]      c3        107
    x[5]      c4        605
    x[5]      OBJ       -667
    x[6]      c1        12
    x[6]      c2        412
    x[6]      c3        150
    x[6]      c4        512
    x[6]      OBJ       -475
    x[7]      c1        270
    x[7]      c2        137
    x[7]      c3        762
    x[7]      c4        447
    x[7]      OBJ       -210
    x[8]      c1        412
    x[8]      c2        109
    x[8]      c3        521
    x[8]      c4        462
    x[8]      OBJ       -806
    x[9]      c1        998
    x[9]      c2        460
    x[9]      c3        400
    x[9]      c4        286
    x[9]      OBJ       -125
    x[10]     c1        599
    x[10]     c2        388
    x[10]     c3        140
    x[10]     c4        319
    x[10]     OBJ       -993
    x[11]     c1        974
    x[11]     c2        398
    x[11]     c3        511
    x[11]     c4        977
    x[11]     OBJ       -443
    x[12]     c1        416
    x[12]     c2        574
    x[12]     c3        922
    x[12]     c4        361
    x[12]     OBJ       -199
    x[13]     c1        718
    x[13]     c2        856
    x[13]     c3        932
    x[13]     c4        563
    x[13]     OBJ       -4
    x[14]     c1        184
    x[14]     c2        314
    x[14]     c3        43
    x[14]     c4        771
    x[14]     OBJ       -102
    x[15]     c1        52
    x[15]     c2        728
    x[15]     c3        409
    x[15]     c4        405
    x[15]     OBJ       -541
    x[16]     c1        819
    x[16]     c2        98
    x[16]     c3        464
    x[16]     c4        16
    x[16]     OBJ       -255
    x[17]     c1        184
    x[17]     c2        284
    x[17]     c3        91
    x[17]     c4        401
    x[17]     OBJ       -393
    x[18]     c1        465
    x[18]     c2        594
    x[18]     c3        327
    x[18]     c4        352
    x[18]     OBJ       -53
    x[19]     c1        386
    x[19]     c2        342
    x[19]     c3        409
    x[19]     c4        198
    x[19]     OBJ       -220
    x[20]     c1        5
    x[20]     c2        656
    x[20]     c3        911
    x[20]     c4        624
    x[20]     OBJ       -253
    x[21]     c1        342
    x[21]     c2        517
    x[21]     c3        389
    x[21]     c4        326
    x[21]     OBJ       -552
    x[22]     c1        825
    x[22]     c2        921
    x[22]     c3        491
    x[22]     c4        624
    x[22]     OBJ       -279
    x[23]     c1        383
    x[23]     c2        227
    x[23]     c3        155
    x[23]     c4        734
    x[23]     OBJ       -643
    x[24]     c1        486
    x[24]     c2        733
    x[24]     c3        984
    x[24]     c4        338
    x[24]     OBJ       -946
    x[25]     c1        314
    x[25]     c2        207
    x[25]     c3        333
    x[25]     c4        997
    x[25]     OBJ       -796
    x[26]     c1        10
    x[26]     c2        133
    x[26]     c3        926
    x[26]     c4        57
    x[26]     OBJ       -148
    x[27]     c1        346
    x[27]     c2        800
    x[27]     c3        832
    x[27]     c4        373
    x[27]     OBJ       -998
    x[28]     c1        783
    x[28]     c2        807
    x[28]     c3        31
    x[28]     c4        534
    x[28]     OBJ       -973
    x[29]     c1        660
    x[29]     c2        979
    x[29]     c3        615
    x[29]     c4        810
    x[29]     OBJ       -117
    x[30]     c1        682
    x[30]     c2        351
    x[30]     c3        628
    x[30]     c4        733
    x[30]     OBJ       -285
RHS
    rhs       c1        7270
    rhs       c2        7224
    rhs       c3        7010
    rhs       c4        7226
RANGES
BOUNDS
 BV bounds    x[1]
 BV bounds    x[2]
 BV bounds    x[3]
 BV bounds    x[4]
 BV bounds    x[5]
 BV bounds    x[6]
 BV bounds    x[7]
 BV bounds    x[8]
 BV bounds    x[9]
 BV bounds    x[10]
 BV bounds    x[11]
 BV bounds    x[12]
 BV bounds    x[13]
 BV bounds    x[14]
 BV bounds    x[15]
 BV bounds    x[16]
 BV bounds    x[17]
 BV bounds    x[18]
 BV bounds    x[19]
 BV bounds    x[20]
 BV bounds    x[21]
 BV bounds    x[22]
 BV bounds    x[23]
 BV bounds    x[24]
 BV bounds    x[25]
 BV bounds    x[26]
 BV bounds    x[27]
 BV bounds    x[28]
 BV bounds    x[29]
 BV bounds    x[30]
ENDATA
